1
1000
60
483 1
468 1
453 1
451 1
445 1
443 1
442 1
429 1
426 1
417 1
412 1
397 1
391 1
382 1
380 1
377 1
376 1
373 1
369 1
369 1
364 1
363 1
359 1
359 1
351 1
343 1
337 1
332 1
319 1
319 1
316 1
308 1
307 1
304 1
304 1
304 1
298 1
294 1
289 1
288 1
280 1
276 1
276 1
275 1
273 1
266 1
263 1
263 1
262 1
261 1
261 1
259 1
259 1
258 1
258 1
256 1
254 1
254 1
253 1
252 1
